Version identifier: 12.10.0.0 | 2019-11-26 | 843d4de
CPXPARAM_WorkMem                                 28672
Tried aggregator 2 times.
MIP Presolve eliminated 10 rows and 0 columns.
MIP Presolve added 20 rows and 0 columns.
Aggregator did 30 substitutions.
Reduced MIP has 52 rows, 50 columns, and 208 nonzeros.
Reduced MIP has 50 binaries, 0 generals, 0 SOSs, and 0 indicators.
Presolve time = 0,00 sec. (0,38 ticks)
Found incumbent of value 180,000000 after 0,00 sec. (0,45 ticks)
Probing time = 0,00 sec. (0,16 ticks)
Tried aggregator 1 time.
Detecting symmetries...
Reduced MIP has 52 rows, 50 columns, and 208 nonzeros.
Reduced MIP has 50 binaries, 0 generals, 0 SOSs, and 0 indicators.
Presolve time = 0,00 sec. (0,16 ticks)
Probing time = 0,00 sec. (0,16 ticks)
Clique table members: 204.
MIP emphasis: balance optimality and feasibility.
MIP search method: dynamic search.
Parallel mode: deterministic, using up to 16 threads.
Root relaxation solution time = 0,00 sec. (0,08 ticks)

        Nodes                                         Cuts/
   Node  Left     Objective  IInf  Best Integer    Best Bound    ItCnt     Gap

*     0+    0                          180,0000        0,0000           100,00%
*     0+    0                          168,0000        0,0000           100,00%
      0     0       96,0000    32      168,0000       96,0000       20   42,86%
*     0+    0                          164,0000       96,0000            41,46%
      0     0      125,8236    32      164,0000      Cuts: 98       63   23,28%
*     0+    0                          148,0000      125,8236            14,98%
      0     0      129,2599    32      148,0000      Cuts: 93       84   12,66%
      0     0      129,8069    32      148,0000      Cuts: 49       90   12,29%
      0     0        cutoff            148,0000      148,0000       90    0,00%
Elapsed time = 0,04 sec. (5,44 ticks, tree = 0,01 MB, solutions = 4)

Clique cuts applied:  25
Cover cuts applied:  16
Implied bound cuts applied:  27
Mixed integer rounding cuts applied:  9
Zero-half cuts applied:  7
Gomory fractional cuts applied:  4

Root node processing (before b&c):
  Real time             =    0,04 sec. (5,44 ticks)
Parallel b&c, 16 threads:
  Real time             =    0,00 sec. (0,00 ticks)
  Sync time (average)   =    0,00 sec.
  Wait time (average)   =    0,00 sec.
                          ------------
Total (root+branch&cut) =    0,04 sec. (5,44 ticks)
